data/CVRPLIB/Vrp-Set-XML100/instances/XML100_1213_14.vrp
NAME : XML100_1213_14
COMMENT : Generated by Queiroga, Sadykov, Uchoa, and Vidal (2021)
TYPE : CVRP
DIMENSION : 101
EDGE_WEIGHT_TYPE : EUC_2D
CAPACITY : 9
NODE_COORD_SECTION
1    880  864 
2    867  3   
3    832  111 
4    296  658 
5    592  692 
6    168  753 
7    286  900 
8    507  859 
9    902  50  
10   991  69  
11   493  721 
12   358  877 
13   846  54  
14   503  587 
15   281  952 
16   356  697 
17   407  897 
18   308  795 
19   209  924 
20   898  0   
21   436  712 
22   240  972 
23   313  734 
24   914  121 
25   338  752 
26   329  939 
27   315  965 
28   459  728 
29   320  693 
30   933  137 
31   336  586 
32   387  961 
33   272  918 
34   807  49  
35   424  721 
36   292  980 
37   499  757 
38   352  719 
39   471  609 
40   942  74  
41   343  623 
42   513  490 
43   916  121 
44   404  853 
45   748  166 
46   267  726 
47   308  968 
48   363  946 
49   449  734 
50   906  130 
51   875  235 
52   345  755 
53   383  698 
54   492  842 
55   918  151 
56   435  714 
57   214  991 
58   541  689 
59   350  713 
60   456  830 
61   346  740 
62   505  628 
63   862  7   
64   909  44  
65   1000 88  
66   287  935 
67   251  998 
68   410  743 
69   443  686 
70   185  735 
71   369  842 
72   948  129 
73   811  52  
74   319  979 
75   841  14  
76   255  937 
77   294  672 
78   337  994 
79   163  863 
80   469  720 
81   926  89  
82   885  88  
83   526  843 
84   916  61  
85   624  0   
86   263  778 
87   948  111 
88   336  696 
89   362  707 
90   350  699 
91   938  69  
92   943  88  
93   228  686 
94   275  441 
95   381  697 
96   191  991 
97   429  558 
98   380  953 
99   336  541 
100  343  969 
101  325  790 
DEMAND_SECTION
1    0   
2    1   
3    1   
4    1   
5    1   
6    1   
7    1   
8    1   
9    1   
10   1   
11   1   
12   1   
13   1   
14   1   
15   1   
16   1   
17   1   
18   1   
19   1   
20   1   
21   1   
22   1   
23   1   
24   1   
25   1   
26   1   
27   1   
28   1   
29   1   
30   1   
31   1   
32   1   
33   1   
34   1   
35   1   
36   1   
37   1   
38   1   
39   1   
40   1   
41   1   
42   1   
43   1   
44   1   
45   1   
46   1   
47   1   
48   1   
49   1   
50   1   
51   1   
52   1   
53   1   
54   1   
55   1   
56   1   
57   1   
58   1   
59   1   
60   1   
61   1   
62   1   
63   1   
64   1   
65   1   
66   1   
67   1   
68   1   
69   1   
70   1   
71   1   
72   1   
73   1   
74   1   
75   1   
76   1   
77   1   
78   1   
79   1   
80   1   
81   1   
82   1   
83   1   
84   1   
85   1   
86   1   
87   1   
88   1   
89   1   
90   1   
91   1   
92   1   
93   1   
94   1   
95   1   
96   1   
97   1   
98   1   
99   1   
100  1   
101  1   
DEPOT_SECTION
1
-1
EOF
