data/CVRPLIB/Vrp-Set-XML100/solutions/XML100_1213_14.sol
Route #1: 4
Route #2: 29 71 86 91 80 42 23 49 54
Route #3: 64 9 39 90 83 63 8 81 50
Route #4: 44 33 72 74 62 1 19 12 2
Route #5: 22 45 92 69 5 78 85 17 100
Route #6: 16 25 65 14 35 46 26 73 99
Route #7: 52 94 88 58 37 60 24 51 82
Route #8: 61 13 38 96 30 98 93 84 41
Route #9: 57 10 79 20 55 34 48 27 36
Route #10: 6 32 75 18 95 56 21 66 77
Route #11: 31 97 47 11 70 43 59 53 7
Route #12: 68 40 3 76 28 87 89 15 67
Cost 17283
